c Created with the Wolfram Language : www.wolfram.com
c 
p edge 60 388
e 2 3
e 1 6
e 6 7
e 5 8
e 6 8
e 9 10
e 4 11
e 6 12
e 9 12
e 10 12
e 1 13
e 12 13
e 11 14
e 12 14
e 4 15
e 6 15
e 9 15
e 10 15
e 5 16
e 9 16
e 6 17
e 11 17
e 12 17
e 3 18
e 9 18
e 10 18
e 11 18
e 4 19
e 7 19
e 9 19
e 14 19
e 16 19
e 17 19
e 2 20
e 4 20
e 5 20
e 11 20
e 16 20
e 19 20
e 4 21
e 11 21
e 13 21
e 11 22
e 20 22
e 13 23
e 9 24
e 11 24
e 12 24
e 16 24
e 19 24
e 7 25
e 9 25
e 14 25
e 16 25
e 6 26
e 7 26
e 10 26
e 13 26
e 14 26
e 15 26
e 19 26
e 2 27
e 5 27
e 7 27
e 9 27
e 11 27
e 13 27
e 17 27
e 19 27
e 23 27
e 1 28
e 2 28
e 10 28
e 12 28
e 13 28
e 18 28
e 19 28
e 22 28
e 6 29
e 8 29
e 11 29
e 12 29
e 14 29
e 15 29
e 23 29
e 3 30
e 14 30
e 24 30
e 27 30
e 2 31
e 6 31
e 7 31
e 11 31
e 14 31
e 20 31
e 22 31
e 28 31
e 29 31
e 30 31
e 5 32
e 6 32
e 10 32
e 15 32
e 27 32
e 31 32
e 22 33
e 26 33
e 27 33
e 30 33
e 1 34
e 6 34
e 8 34
e 16 34
e 18 34
e 22 34
e 31 34
e 2 35
e 7 35
e 14 35
e 25 35
e 34 35
e 2 36
e 6 36
e 7 36
e 8 36
e 13 36
e 15 36
e 21 36
e 30 36
e 35 36
e 2 37
e 9 37
e 14 37
e 17 37
e 18 37
e 27 37
e 30 37
e 35 37
e 1 38
e 8 38
e 12 38
e 27 38
e 28 38
e 1 39
e 3 39
e 9 39
e 10 39
e 11 39
e 13 39
e 14 39
e 18 39
e 19 39
e 21 39
e 22 39
e 23 39
e 25 39
e 36 39
e 37 39
e 38 39
e 2 40
e 11 40
e 17 40
e 26 40
e 31 40
e 37 40
e 39 40
e 12 41
e 13 41
e 17 41
e 28 41
e 30 41
e 36 41
e 4 42
e 12 42
e 18 42
e 23 42
e 29 42
e 30 42
e 32 42
e 35 42
e 1 43
e 10 43
e 11 43
e 18 43
e 23 43
e 28 43
e 39 43
e 8 44
e 10 44
e 11 44
e 12 44
e 17 44
e 21 44
e 24 44
e 25 44
e 30 44
e 1 45
e 4 45
e 10 45
e 17 45
e 40 45
e 41 45
e 3 46
e 8 46
e 11 46
e 21 46
e 22 46
e 25 46
e 26 46
e 34 46
e 44 46
e 1 47
e 3 47
e 4 47
e 6 47
e 7 47
e 18 47
e 28 47
e 29 47
e 32 47
e 33 47
e 41 47
e 1 48
e 3 48
e 5 48
e 16 48
e 19 48
e 20 48
e 34 48
e 44 48
e 47 48
e 4 49
e 10 49
e 13 49
e 20 49
e 32 49
e 35 49
e 36 49
e 41 49
e 42 49
e 45 49
e 2 50
e 4 50
e 6 50
e 8 50
e 11 50
e 15 50
e 19 50
e 23 50
e 27 50
e 34 50
e 39 50
e 1 51
e 6 51
e 7 51
e 25 51
e 29 51
e 34 51
e 39 51
e 40 51
e 41 51
e 47 51
e 48 51
e 1 52
e 6 52
e 8 52
e 13 52
e 21 52
e 30 52
e 32 52
e 36 52
e 40 52
e 47 52
e 3 53
e 11 53
e 13 53
e 16 53
e 17 53
e 20 53
e 26 53
e 30 53
e 32 53
e 35 53
e 40 53
e 41 53
e 42 53
e 44 53
e 46 53
e 51 53
e 52 53
e 4 54
e 10 54
e 11 54
e 17 54
e 21 54
e 26 54
e 30 54
e 31 54
e 39 54
e 45 54
e 51 54
e 5 55
e 7 55
e 8 55
e 16 55
e 18 55
e 24 55
e 25 55
e 26 55
e 35 55
e 39 55
e 40 55
e 41 55
e 42 55
e 46 55
e 52 55
e 3 56
e 12 56
e 14 56
e 16 56
e 17 56
e 23 56
e 26 56
e 31 56
e 35 56
e 37 56
e 39 56
e 41 56
e 43 56
e 2 57
e 5 57
e 7 57
e 9 57
e 12 57
e 16 57
e 19 57
e 21 57
e 22 57
e 27 57
e 34 57
e 36 57
e 41 57
e 46 57
e 50 57
e 54 57
e 5 58
e 9 58
e 13 58
e 18 58
e 22 58
e 23 58
e 26 58
e 30 58
e 38 58
e 39 58
e 47 58
e 50 58
e 51 58
e 56 58
e 3 59
e 8 59
e 11 59
e 13 59
e 21 59
e 23 59
e 24 59
e 31 59
e 32 59
e 44 59
e 48 59
e 51 59
e 58 59
e 1 60
e 2 60
e 4 60
e 7 60
e 8 60
e 12 60
e 14 60
e 19 60
e 28 60
e 29 60
e 33 60
e 37 60
e 41 60
e 47 60
e 50 60
e 53 60
